c nIsolatedPIs 0
c maxPI 32
p cnf 233 604
c gate 33 -2 18 0
-2 -33 0
18 -33 0
2 -18 33 0
c gate 34 -1 17 0
-1 -34 0
17 -34 0
1 -17 34 0
c gate 35 -33 -34 0
-33 -35 0
-34 -35 0
33 34 35 0
c gate 36 3 -19 0
3 -36 0
-19 -36 0
-3 19 36 0
c gate 37 -35 -36 0
-35 -37 0
-36 -37 0
35 36 37 0
c gate 38 -3 19 0
-3 -38 0
19 -38 0
3 -19 38 0
c gate 39 2 -18 0
2 -39 0
-18 -39 0
-2 18 39 0
c gate 40 37 -39 0
37 -40 0
-39 -40 0
-37 39 40 0
c gate 41 -38 -40 0
-38 -41 0
-40 -41 0
38 40 41 0
c gate 42 37 41 0
37 -42 0
41 -42 0
-37 -41 42 0
c gate 43 34 39 0
34 -43 0
39 -43 0
-34 -39 43 0
c gate 44 -15 -31 0
-15 -44 0
-31 -44 0
15 31 44 0
c gate 45 15 31 0
15 -45 0
31 -45 0
-15 -31 45 0
c gate 46 -44 -45 0
-44 -46 0
-45 -46 0
44 45 46 0
c gate 47 -14 -30 0
-14 -47 0
-30 -47 0
14 30 47 0
c gate 48 14 30 0
14 -48 0
30 -48 0
-14 -30 48 0
c gate 49 -47 -48 0
-47 -49 0
-48 -49 0
47 48 49 0
c gate 50 -13 -29 0
-13 -50 0
-29 -50 0
13 29 50 0
c gate 51 12 28 0
12 -51 0
28 -51 0
-12 -28 51 0
c gate 52 -12 -28 0
-12 -52 0
-28 -52 0
12 28 52 0
c gate 53 -51 -52 0
-51 -53 0
-52 -53 0
51 52 53 0
c gate 54 -11 -27 0
-11 -54 0
-27 -54 0
11 27 54 0
c gate 55 -10 -26 0
-10 -55 0
-26 -55 0
10 26 55 0
c gate 56 9 25 0
9 -56 0
25 -56 0
-9 -25 56 0
c gate 57 -6 -22 0
-6 -57 0
-22 -57 0
6 22 57 0
c gate 58 5 21 0
5 -58 0
21 -58 0
-5 -21 58 0
c gate 59 -3 -19 0
-3 -59 0
-19 -59 0
3 19 59 0
c gate 60 2 18 0
2 -60 0
18 -60 0
-2 -18 60 0
c gate 61 -2 -18 0
-2 -61 0
-18 -61 0
2 18 61 0
c gate 62 1 17 0
1 -62 0
17 -62 0
-1 -17 62 0
c gate 63 -61 62 0
-61 -63 0
62 -63 0
61 -62 63 0
c gate 64 -60 -63 0
-60 -64 0
-63 -64 0
60 63 64 0
c gate 65 -59 -64 0
-59 -65 0
-64 -65 0
59 64 65 0
c gate 66 4 20 0
4 -66 0
20 -66 0
-4 -20 66 0
c gate 67 3 19 0
3 -67 0
19 -67 0
-3 -19 67 0
c gate 68 -66 -67 0
-66 -68 0
-67 -68 0
66 67 68 0
c gate 69 -65 68 0
-65 -69 0
68 -69 0
65 -68 69 0
c gate 70 -4 -20 0
-4 -70 0
-20 -70 0
4 20 70 0
c gate 71 -5 -21 0
-5 -71 0
-21 -71 0
5 21 71 0
c gate 72 -70 -71 0
-70 -72 0
-71 -72 0
70 71 72 0
c gate 73 -69 72 0
-69 -73 0
72 -73 0
69 -72 73 0
c gate 74 -58 -73 0
-58 -74 0
-73 -74 0
58 73 74 0
c gate 75 -57 -74 0
-57 -75 0
-74 -75 0
57 74 75 0
c gate 76 6 22 0
6 -76 0
22 -76 0
-6 -22 76 0
c gate 77 7 -23 0
7 -77 0
-23 -77 0
-7 23 77 0
c gate 78 -7 23 0
-7 -78 0
23 -78 0
7 -23 78 0
c gate 79 -77 -78 0
-77 -79 0
-78 -79 0
77 78 79 0
c gate 80 -76 -79 0
-76 -80 0
-79 -80 0
76 79 80 0
c gate 81 -75 80 0
-75 -81 0
80 -81 0
75 -80 81 0
c gate 82 8 24 0
8 -82 0
24 -82 0
-8 -24 82 0
c gate 83 -8 -24 0
-8 -83 0
-24 -83 0
8 24 83 0
c gate 84 -82 -83 0
-82 -84 0
-83 -84 0
82 83 84 0
c gate 85 81 84 0
81 -85 0
84 -85 0
-81 -84 85 0
c gate 86 -7 -23 0
-7 -86 0
-23 -86 0
7 23 86 0
c gate 87 -82 86 0
-82 -87 0
86 -87 0
82 -86 87 0
c gate 88 -9 -25 0
-9 -88 0
-25 -88 0
9 25 88 0
c gate 89 -83 -88 0
-83 -89 0
-88 -89 0
83 88 89 0
c gate 90 -87 89 0
-87 -90 0
89 -90 0
87 -89 90 0
c gate 91 -85 90 0
-85 -91 0
90 -91 0
85 -90 91 0
c gate 92 -56 -91 0
-56 -92 0
-91 -92 0
56 91 92 0
c gate 93 -55 -92 0
-55 -93 0
-92 -93 0
55 92 93 0
c gate 94 11 27 0
11 -94 0
27 -94 0
-11 -27 94 0
c gate 95 10 26 0
10 -95 0
26 -95 0
-10 -26 95 0
c gate 96 -94 -95 0
-94 -96 0
-95 -96 0
94 95 96 0
c gate 97 -93 96 0
-93 -97 0
96 -97 0
93 -96 97 0
c gate 98 -54 -97 0
-54 -98 0
-97 -98 0
54 97 98 0
c gate 99 53 98 0
53 -99 0
98 -99 0
-53 -98 99 0
c gate 100 13 29 0
13 -100 0
29 -100 0
-13 -29 100 0
c gate 101 -51 -100 0
-51 -101 0
-100 -101 0
51 100 101 0
c gate 102 -99 101 0
-99 -102 0
101 -102 0
99 -101 102 0
c gate 103 -50 -102 0
-50 -103 0
-102 -103 0
50 102 103 0
c gate 104 49 -103 0
49 -104 0
-103 -104 0
-49 103 104 0
c gate 105 -47 -104 0
-47 -105 0
-104 -105 0
47 104 105 0
c gate 106 46 -105 0
46 -106 0
-105 -106 0
-46 105 106 0
c gate 107 -44 -106 0
-44 -107 0
-106 -107 0
44 106 107 0
c gate 108 16 -32 0
16 -108 0
-32 -108 0
-16 32 108 0
c gate 109 -16 32 0
-16 -109 0
32 -109 0
16 -32 109 0
c gate 110 -108 -109 0
-108 -110 0
-109 -110 0
108 109 110 0
c gate 111 -107 -110 0
-107 -111 0
-110 -111 0
107 110 111 0
c gate 112 49 -101 0
49 -112 0
-101 -112 0
-49 101 112 0
c gate 113 -48 -112 0
-48 -113 0
-112 -113 0
48 112 113 0
c gate 114 46 113 0
46 -114 0
113 -114 0
-46 -113 114 0
c gate 115 -44 -114 0
-44 -115 0
-114 -115 0
44 114 115 0
c gate 116 111 115 0
111 -116 0
115 -116 0
-111 -115 116 0
c gate 117 -43 -116 0
-43 -117 0
-116 -117 0
43 116 117 0
c gate 118 -42 -117 0
-42 -118 0
-117 -118 0
42 117 118 0
c gate 119 -110 -115 0
-110 -119 0
-115 -119 0
110 115 119 0
c gate 120 107 119 0
107 -120 0
119 -120 0
-107 -119 120 0
c gate 121 117 -120 0
117 -121 0
-120 -121 0
-117 120 121 0
c gate 122 -49 101 0
-49 -122 0
101 -122 0
49 -101 122 0
c gate 123 -112 -122 0
-112 -123 0
-122 -123 0
112 122 123 0
c gate 124 -49 103 0
-49 -124 0
103 -124 0
49 -103 124 0
c gate 125 -104 -124 0
-104 -125 0
-124 -125 0
104 124 125 0
c gate 126 123 125 0
123 -126 0
125 -126 0
-123 -125 126 0
c gate 127 -123 -125 0
-123 -127 0
-125 -127 0
123 125 127 0
c gate 128 -126 -127 0
-126 -128 0
-127 -128 0
126 127 128 0
c gate 129 -56 -95 0
-56 -129 0
-95 -129 0
56 95 129 0
c gate 130 -90 129 0
-90 -130 0
129 -130 0
90 -129 130 0
c gate 131 -54 -55 0
-54 -131 0
-55 -131 0
54 55 131 0
c gate 132 -130 131 0
-130 -132 0
131 -132 0
130 -131 132 0
c gate 133 -94 -132 0
-94 -133 0
-132 -133 0
94 132 133 0
c gate 134 -53 98 0
-53 -134 0
98 -134 0
53 -98 134 0
c gate 135 133 -134 0
133 -135 0
-134 -135 0
-133 134 135 0
c gate 136 53 -98 0
53 -136 0
-98 -136 0
-53 98 136 0
c gate 137 -133 -136 0
-133 -137 0
-136 -137 0
133 136 137 0
c gate 138 -135 -137 0
-135 -138 0
-137 -138 0
135 137 138 0
c gate 139 128 138 0
128 -139 0
138 -139 0
-128 -138 139 0
c gate 140 107 110 0
107 -140 0
110 -140 0
-107 -110 140 0
c gate 141 -111 -140 0
-111 -141 0
-140 -141 0
111 140 141 0
c gate 142 110 115 0
110 -142 0
115 -142 0
-110 -115 142 0
c gate 143 -119 -142 0
-119 -143 0
-142 -143 0
119 142 143 0
c gate 144 -141 143 0
-141 -144 0
143 -144 0
141 -143 144 0
c gate 145 141 -143 0
141 -145 0
-143 -145 0
-141 143 145 0
c gate 146 -46 -113 0
-46 -146 0
-113 -146 0
46 113 146 0
c gate 147 -114 -146 0
-114 -147 0
-146 -147 0
114 146 147 0
c gate 148 -46 105 0
-46 -148 0
105 -148 0
46 -105 148 0
c gate 149 -106 -148 0
-106 -149 0
-148 -149 0
106 148 149 0
c gate 150 147 -149 0
147 -150 0
-149 -150 0
-147 149 150 0
c gate 151 -147 149 0
-147 -151 0
149 -151 0
147 -149 151 0
c gate 152 -50 -100 0
-50 -152 0
-100 -152 0
50 100 152 0
c gate 153 99 -152 0
99 -153 0
-152 -153 0
-99 152 153 0
c gate 154 -127 -153 0
-127 -154 0
-153 -154 0
127 153 154 0
c gate 155 -151 -154 0
-151 -155 0
-154 -155 0
151 154 155 0
c gate 156 -150 -155 0
-150 -156 0
-155 -156 0
150 155 156 0
c gate 157 -145 -156 0
-145 -157 0
-156 -157 0
145 156 157 0
c gate 158 -144 -157 0
-144 -158 0
-157 -158 0
144 157 158 0
c gate 159 -139 158 0
-139 -159 0
158 -159 0
139 -158 159 0
c gate 160 -85 -99 0
-85 -160 0
-99 -160 0
85 99 160 0
c gate 161 128 160 0
128 -161 0
160 -161 0
-128 -160 161 0
c gate 162 -159 -161 0
-159 -162 0
-161 -162 0
159 161 162 0
c gate 163 121 162 0
121 -163 0
162 -163 0
-121 -162 163 0
c gate 164 -118 -163 0
-118 -164 0
-163 -164 0
118 163 164 0
c gate 165 10 -26 0
10 -165 0
-26 -165 0
-10 26 165 0
c gate 166 8 -24 0
8 -166 0
-24 -166 0
-8 24 166 0
c gate 167 -56 -88 0
-56 -167 0
-88 -167 0
56 88 167 0
c gate 168 -166 -167 0
-166 -168 0
-167 -168 0
166 167 168 0
c gate 169 -9 25 0
-9 -169 0
25 -169 0
9 -25 169 0
c gate 170 -10 26 0
-10 -170 0
26 -170 0
10 -26 170 0
c gate 171 -169 -170 0
-169 -171 0
-170 -171 0
169 170 171 0
c gate 172 -168 171 0
-168 -172 0
171 -172 0
168 -171 172 0
c gate 173 -165 -172 0
-165 -173 0
-172 -173 0
165 172 173 0
c gate 174 -4 20 0
-4 -174 0
20 -174 0
4 -20 174 0
c gate 175 41 -174 0
41 -175 0
-174 -175 0
-41 174 175 0
c gate 176 4 -20 0
4 -176 0
-20 -176 0
-4 20 176 0
c gate 177 -58 -71 0
-58 -177 0
-71 -177 0
58 71 177 0
c gate 178 -176 -177 0
-176 -178 0
-177 -178 0
176 177 178 0
c gate 179 -175 178 0
-175 -179 0
178 -179 0
175 -178 179 0
c gate 180 -57 -76 0
-57 -180 0
-76 -180 0
57 76 180 0
c gate 181 -5 21 0
-5 -181 0
21 -181 0
5 -21 181 0
c gate 182 -180 -181 0
-180 -182 0
-181 -182 0
180 181 182 0
c gate 183 -179 182 0
-179 -183 0
182 -183 0
179 -182 183 0
c gate 184 -78 183 0
-78 -184 0
183 -184 0
78 -183 184 0
c gate 185 6 -22 0
6 -185 0
-22 -185 0
-6 22 185 0
c gate 186 -78 185 0
-78 -186 0
185 -186 0
78 -185 186 0
c gate 187 -77 -186 0
-77 -187 0
-186 -187 0
77 186 187 0
c gate 188 -184 187 0
-184 -188 0
187 -188 0
184 -187 188 0
c gate 189 -84 -188 0
-84 -189 0
-188 -189 0
84 188 189 0
c gate 190 171 189 0
171 -190 0
189 -190 0
-171 -189 190 0
c gate 191 173 -190 0
173 -191 0
-190 -191 0
-173 190 191 0
c gate 192 -54 -94 0
-54 -192 0
-94 -192 0
54 94 192 0
c gate 193 191 -192 0
191 -193 0
-192 -193 0
-191 192 193 0
c gate 194 -174 178 0
-174 -194 0
178 -194 0
174 -178 194 0
c gate 195 42 194 0
42 -195 0
194 -195 0
-42 -194 195 0
c gate 196 -183 -195 0
-183 -196 0
-195 -196 0
183 195 196 0
c gate 197 79 -180 0
79 -197 0
-180 -197 0
-79 180 197 0
c gate 198 -196 -197 0
-196 -198 0
-197 -198 0
196 197 198 0
c gate 199 42 -194 0
42 -199 0
-194 -199 0
-42 194 199 0
c gate 200 164 -199 0
164 -200 0
-199 -200 0
-164 199 200 0
c gate 201 196 -200 0
196 -201 0
-200 -201 0
-196 200 201 0
c gate 202 -198 -201 0
-198 -202 0
-201 -202 0
198 201 202 0
c gate 203 84 187 0
84 -203 0
187 -203 0
-84 -187 203 0
c gate 204 -188 203 0
-188 -204 0
203 -204 0
188 -203 204 0
c gate 205 202 -204 0
202 -205 0
-204 -205 0
-202 204 205 0
c gate 206 -189 -205 0
-189 -206 0
-205 -206 0
189 205 206 0
c gate 207 -165 -170 0
-165 -207 0
-170 -207 0
165 170 207 0
c gate 208 -167 207 0
-167 -208 0
207 -208 0
167 -207 208 0
c gate 209 189 -208 0
189 -209 0
-208 -209 0
-189 208 209 0
c gate 210 -206 -209 0
-206 -210 0
-209 -210 0
206 209 210 0
c gate 211 -191 192 0
-191 -211 0
192 -211 0
191 -192 211 0
c gate 212 -193 -211 0
-193 -212 0
-211 -212 0
193 211 212 0
c gate 213 173 -212 0
173 -213 0
-212 -213 0
-173 212 213 0
c gate 214 210 -213 0
210 -214 0
-213 -214 0
-210 213 214 0
c gate 215 -193 -214 0
-193 -215 0
-214 -215 0
193 214 215 0
c gate 216 -46 -49 0
-46 -216 0
-49 -216 0
46 49 216 0
c gate 217 -53 110 0
-53 -217 0
110 -217 0
53 -110 217 0
c gate 218 -152 217 0
-152 -218 0
217 -218 0
152 -217 218 0
c gate 219 216 218 0
216 -219 0
218 -219 0
-216 -218 219 0
c gate 220 193 219 0
193 -220 0
219 -220 0
-193 -219 220 0
c gate 221 -215 -220 0
-215 -221 0
-220 -221 0
215 220 221 0
c gate 222 -164 221 0
-164 -222 0
221 -222 0
164 -221 222 0
c gate 223 81 -138 0
81 -223 0
-138 -223 0
-81 138 223 0
c gate 224 -99 -223 0
-99 -224 0
-223 -224 0
99 223 224 0
c gate 225 128 224 0
128 -225 0
224 -225 0
-128 -224 225 0
c gate 226 158 -225 0
158 -226 0
-225 -226 0
-158 225 226 0
c gate 227 121 -226 0
121 -227 0
-226 -227 0
-121 226 227 0
c gate 228 -118 -227 0
-118 -228 0
-227 -228 0
118 227 228 0
c gate 229 -221 228 0
-221 -229 0
228 -229 0
221 -228 229 0
c gate 230 -222 -229 0
-222 -230 0
-229 -230 0
222 229 230 0
c gate 231 42 -230 0
42 -231 0
-230 -231 0
-42 230 231 0
c gate 232 -42 230 0
-42 -232 0
230 -232 0
42 -230 232 0
c gate 233 -231 -232 0
-231 -233 0
-232 -233 0
231 232 233 0
c PO
233 0
